WARNING: for repeatability, setting FPU to use double precision
============================[ Problem Statistics ]=============================
|                                                                             |
|  Number of variables:           100                                         |
|  Number of clauses:             449                                         |
|  Parse time:                   0.00 s                                       |
|  Eliminated clauses:           0.00 Mb                                      |
|  Simplification time:          0.00 s                                       |
|                                                                             |
============================[ Search Statistics ]==============================
| Conflicts |          ORIGINAL         |          LEARNT          | Progress |
|           |    Vars  Clauses Literals |    Limit  Clauses Lit/Cl |          |
===============================================================================
|       100 |      99      449     1352 |      164      100      7 |  0.010 % |
|       250 |      99      449     1352 |      181      163      6 |  0.011 % |
===============================================================================
restarts              : 4
conflicts             : 437            (98092 /sec)
decisions             : 541            (0.00 % random) (121437 /sec)
propagations          : 10342          (2321437 /sec)
conflict literals     : 2799           (23.27 % deleted)
Memory used           : 13.00 MB
CPU time              : 0.004455 s

SATISFIABLE
